1 -1 2 0
1 3 4 0
1 5 -6 0
1 5 7 0
1 -5 2 0
1 -8 -9 0
1 -8 5 0
1 6 10 0
1 -6 -8 0
1 6 -3 0
1 6 11 0
1 2 -12 0
1 -2 -10 0
1 2 13 0
1 -2 -1 0
1 -14 8 0
1 14 -1 0
1 4 -15 0
1 -4 -3 0
1 -4 16 0
1 13 17 0
1 13 -10 0
1 -13 6 0
1 -13 -7 0
1 -13 18 0
1 -10 15 0
1 10 -6 0
1 10 13 0
1 19 -9 0
1 -19 12 0
1 19 -20 0
1 -19 -21 0
1 19 -7 0
1 -19 22 0
1 12 -23 0
1 -22 -8 0
1 22 19 0
1 -17 -24 0
1 17 10 0
1 -17 22 0
1 17 25 0
1 7 26 0
1 -7 -27 0
1 7 28 0
1 -7 -13 0
1 9 -29 0
1 -9 26 0
1 -9 -10 0
1 9 -8 0
1 9 27 0
1 9 -28 0
1 9 19 0
1 -9 -5 0
1 30 -22 0
1 -30 -28 0
1 -24 -26 0
1 24 -20 0
1 -24 21 0
1 -31 -32 0
1 31 -21 0
1 31 27 0
1 -31 -23 0
1 -32 31 0
1 32 23 0
1 -23 -32 0
1 -23 24 0
1 23 -31 0
1 23 -19 0
1 21 30 0
1 21 23 0
1 -33 -24 0
1 33 20 0
1 33 -34 0
1 -33 35 0
1 33 30 0
1 -20 24 0
1 -20 34 0
1 -20 -31 0
1 20 -33 0
1 20 36 0
1 -18 37 0
1 15 10 0
1 -15 38 0
1 15 -39 0
1 15 4 0
1 -16 37 0
1 16 40 0
1 -16 -19 0
1 16 39 0
1 -16 -41 0
1 -16 -42 0
1 -43 37 0
1 -43 44 0
1 43 -40 0
1 -43 14 0
1 -43 -16 0
1 43 42 0
1 -43 4 0
1 -44 -39 0
1 44 -15 0
1 -44 18 0
1 39 -29 0
1 -39 27 0
1 -39 -16 0
1 28 26 0
1 -28 -44 0
1 -28 -45 0
1 -28 14 0
1 -28 7 0
1 -28 -30 0
1 -28 39 0
1 -26 40 0
1 -27 44 0
1 27 -40 0
1 -27 -39 0
1 -27 -41 0
1 27 -46 0
1 -29 -32 0
1 29 -44 0
1 29 40 0
1 29 -27 0
1 -29 -41 0
1 -29 42 0
1 -45 -29 0
1 45 -34 0
1 -45 -16 0
1 -45 -36 0
1 -45 -25 0
1 42 29 0
1 42 -34 0
1 42 16 0
1 42 -36 0
1 42 25 0
1 -40 -26 0
1 -41 43 0
1 41 -40 0
1 35 9 0
1 35 20 0
1 35 7 0
1 -35 -25 0
1 -25 45 0
1 25 11 0
1 -25 -7 0
1 -25 -22 0
1 -25 -33 0
1 -25 -42 0
1 -25 -46 0
1 -34 -45 0
1 -36 -47 0
1 -36 45 0
1 -36 46 0
1 48 -14 0
1 -48 35 0
1 -48 25 0
1 46 34 0
1 46 35 0
1 46 -27 0
